1	109.28	-54.39
2	26.51	-60.27
3	22.80	-20.16
4	-17.50	-30.47
5	-19.23	-19.28
6	-26.19	-24.06
7	-25.19	14.89
8	-30.71	40.57
9	4.86	30.74
10	25.83	23.79
11	43.56	33.34
12	61.13	31.15
13	51.36	25.62
14	37.16	7.22
15	51.42	1.81
16	17.01	65.88
17	51.19	93.63
18	41.51	113.65
19	17.50	91.64
20	14.18	104.47
21	80.69	89.92
22	103.92	102.26
23	147.96	126.69
24	194.81	148.36
25	156.01	63.53
26	90.57	125.69